NAME          DCAP_3_4_2_500_SS123
ROWS
 N  OBJ
 L  CON1
 L  CON2
 L  CON3
 L  CON4
 L  CON5
 L  CON6
 L  CON7
 L  CON8
 L  CON9
 L  CON10
 L  CON11
 L  CON12
 E  CON13
 E  CON14
 E  CON15
 E  CON16
 E  CON17
 E  CON18
 E  CON19
 E  CON20
COLUMNS
    x[1,1]    OBJ       6.180167      CON1      1.000000    
    x[1,1]    CON7      -1.000000     CON8      -1.000000   
    x[1,2]    OBJ       5.039546      CON2      1.000000    
    x[1,2]    CON8      -1.000000   
    x[2,1]    OBJ       6.732585      CON3      1.000000    
    x[2,1]    CON9      -1.000000     CON10     -1.000000   
    x[2,2]    OBJ       7.443064      CON4      1.000000    
    x[2,2]    CON10     -1.000000   
    x[3,1]    OBJ       6.563535      CON5      1.000000    
    x[3,1]    CON11     -1.000000     CON12     -1.000000   
    x[3,2]    OBJ       6.054841      CON6      1.000000    
    x[3,2]    CON12     -1.000000   
    MARKER    'MARKER'                'INTORG'
    u[1,1]    OBJ       48.076654     CON1      -1.000000   
    u[1,2]    OBJ       49.466655     CON2      -1.000000   
    u[2,1]    OBJ       49.996186     CON3      -1.000000   
    u[2,2]    OBJ       32.230043     CON4      -1.000000   
    u[3,1]    OBJ       20.066487     CON5      -1.000000   
    u[3,2]    OBJ       27.484319     CON6      -1.000000   
    y[1,1,1]  OBJ       6.119203      CON7      1.487912    
    y[1,1,1]  CON13     1.000000    
    y[1,1,2]  OBJ       5.382757      CON8      0.558729    
    y[1,1,2]  CON14     1.000000    
    y[1,2,1]  OBJ       6.495751      CON7      0.536694    
    y[1,2,1]  CON15     1.000000    
    y[1,2,2]  OBJ       9.031270      CON8      0.907425    
    y[1,2,2]  CON16     1.000000    
    y[1,3,1]  OBJ       5.704590      CON7      1.241274    
    y[1,3,1]  CON17     1.000000    
    y[1,3,2]  OBJ       5.966831      CON8      0.816058    
    y[1,3,2]  CON18     1.000000    
    y[1,4,1]  OBJ       9.087568      CON7      0.616769    
    y[1,4,1]  CON19     1.000000    
    y[1,4,2]  OBJ       5.153394      CON8      1.092690    
    y[1,4,2]  CON20     1.000000    
    y[2,1,1]  OBJ       7.983741      CON9      1.487912    
    y[2,1,1]  CON13     1.000000    
    y[2,1,2]  OBJ       7.920465      CON10     0.558729    
    y[2,1,2]  CON14     1.000000    
    y[2,2,1]  OBJ       6.068830      CON9      0.536694    
    y[2,2,1]  CON15     1.000000    
    y[2,2,2]  OBJ       9.189714      CON10     0.907425    
    y[2,2,2]  CON16     1.000000    
    y[2,3,1]  OBJ       7.699398      CON9      1.241274    
    y[2,3,1]  CON17     1.000000    
    y[2,3,2]  OBJ       7.877642      CON10     0.816058    
    y[2,3,2]  CON18     1.000000    
    y[2,4,1]  OBJ       8.815807      CON9      0.616769    
    y[2,4,1]  CON19     1.000000    
    y[2,4,2]  OBJ       9.512108      CON10     1.092690    
    y[2,4,2]  CON20     1.000000    
    y[3,1,1]  OBJ       8.805724      CON11     1.487912    
    y[3,1,1]  CON13     1.000000    
    y[3,1,2]  OBJ       8.586301      CON12     0.558729    
    y[3,1,2]  CON14     1.000000    
    y[3,2,1]  OBJ       7.948210      CON11     0.536694    
    y[3,2,1]  CON15     1.000000    
    y[3,2,2]  OBJ       6.250671      CON12     0.907425    
    y[3,2,2]  CON16     1.000000    
    y[3,3,1]  OBJ       7.925281      CON11     1.241274    
    y[3,3,1]  CON17     1.000000    
    y[3,3,2]  OBJ       5.490050      CON12     0.816058    
    y[3,3,2]  CON18     1.000000    
    y[3,4,1]  OBJ       6.028218      CON11     0.616769    
    y[3,4,1]  CON19     1.000000    
    y[3,4,2]  OBJ       5.161828      CON12     1.092690    
    y[3,4,2]  CON20     1.000000    
    z[1,1]    OBJ       592.966334    CON13     1.000000    
    z[1,2]    OBJ       593.077493    CON14     1.000000    
    z[2,1]    OBJ       767.515542    CON15     1.000000    
    z[2,2]    OBJ       527.040771    CON16     1.000000    
    z[3,1]    OBJ       617.953965    CON17     1.000000    
    z[3,2]    OBJ       517.113774    CON18     1.000000    
    z[4,1]    OBJ       653.244728    CON19     1.000000    
    z[4,2]    OBJ       572.919504    CON20     1.000000    
    MARKER    'MARKER'                 'INTEND'
RHS
    RHS       CON1      -0.000000     CON2      -0.000000   
    RHS       CON3      -0.000000     CON4      -0.000000   
    RHS       CON5      -0.000000     CON6      -0.000000   
    RHS       CON7      -0.000000     CON8      -0.000000   
    RHS       CON9      -0.000000     CON10     -0.000000   
    RHS       CON11     -0.000000     CON12     -0.000000   
    RHS       CON13     1.000000      CON14     1.000000    
    RHS       CON15     1.000000      CON16     1.000000    
    RHS       CON17     1.000000      CON18     1.000000    
    RHS       CON19     1.000000      CON20     1.000000    
BOUNDS
 BV BOUND     u[1,1]  
 BV BOUND     u[1,2]  
 BV BOUND     u[2,1]  
 BV BOUND     u[2,2]  
 BV BOUND     u[3,1]  
 BV BOUND     u[3,2]  
 BV BOUND     y[1,1,1]
 BV BOUND     y[1,1,2]
 BV BOUND     y[1,2,1]
 BV BOUND     y[1,2,2]
 BV BOUND     y[1,3,1]
 BV BOUND     y[1,3,2]
 BV BOUND     y[1,4,1]
 BV BOUND     y[1,4,2]
 BV BOUND     y[2,1,1]
 BV BOUND     y[2,1,2]
 BV BOUND     y[2,2,1]
 BV BOUND     y[2,2,2]
 BV BOUND     y[2,3,1]
 BV BOUND     y[2,3,2]
 BV BOUND     y[2,4,1]
 BV BOUND     y[2,4,2]
 BV BOUND     y[3,1,1]
 BV BOUND     y[3,1,2]
 BV BOUND     y[3,2,1]
 BV BOUND     y[3,2,2]
 BV BOUND     y[3,3,1]
 BV BOUND     y[3,3,2]
 BV BOUND     y[3,4,1]
 BV BOUND     y[3,4,2]
 BV BOUND     z[1,1]  
 BV BOUND     z[1,2]  
 BV BOUND     z[2,1]  
 BV BOUND     z[2,2]  
 BV BOUND     z[3,1]  
 BV BOUND     z[3,2]  
 BV BOUND     z[4,1]  
 BV BOUND     z[4,2]  
ENDATA
